100
1000
266
265
263
262
257
256
250
249
248
244
243
240
240
239
239
238
238
237
237
236
235
233
227
227
227
222
220
215
211
210
208
202
200
199
193
188
188
186
185
172
171
169
166
163
161
158
148
147
143
142
136
130
124
123
123
122
120
119
117
116
110
107
106
98
98
96
91
90
85
84
81
79
78
77
77
74
71
69
69
68
67
66
65
64
64
61
49
44
44
42
41
40
38
30
26
25
22
21
20
17
